% Instance for pentominoes model generated using https://github.com/zayenz/minizinc-pentominoes-generator
% Instance generated for board size 5 with 5 tiles using 17 as seed
% Generated board
%    55444
%    55534
%    52234
%    52244
%    11144

size = 5;
tiles = 5;
expressions = [
    "( ([2 3 4 5 6]* 1{3} [2 3 4 5 6]*) | ([2 3 4 5 6]* 1{1} [2 3 4 5 6]{4} [2 3 4 5 6] 1{1} [2 3 4 5 6]{4} [2 3 4 5 6] 1{1} [2 3 4 5 6]*) | ([2 3 4 5 6]* 1{1} [2 3 4 5 6] [2 3 4 5 6]{4} 1{1} [2 3 4 5 6] [2 3 4 5 6]{4} 1{1} [2 3 4 5 6]*) )",
    "( ([1 3 4 5 6]* 2{2} [1 3 4 5 6]{2} [1 3 4 5 6] [1 3 4 5 6]{1} 2{2} [1 3 4 5 6]*) | ([1 3 4 5 6]* 2{2} [1 3 4 5 6]{1} [1 3 4 5 6] [1 3 4 5 6]{2} 2{2} [1 3 4 5 6]*) )",
    "( ([1 2 4 5 6]* 3{1} [1 2 4 5 6]{1} [1 2 4 5 6] [1 2 4 5 6]{3} 3{1} [1 2 4 5 6]*) | ([1 2 4 5 6]* 3{2} [1 2 4 5 6]*) | ([1 2 4 5 6]* 3{1} [1 2 4 5 6]{3} [1 2 4 5 6] [1 2 4 5 6]{1} 3{1} [1 2 4 5 6]*) )",
    "( ([1 2 3 5 6]* 4{3} [1 2 3 5 6] [1 2 3 5 6]{4} 4{1} [1 2 3 5 6] [1 2 3 5 6]{4} 4{1} [1 2 3 5 6] [1 2 3 5 6]{3} 4{2} [1 2 3 5 6] [1 2 3 5 6]{3} 4{2} [1 2 3 5 6]*) | ([1 2 3 5 6]* 4{1} [1 2 3 5 6] 4{2} [1 2 3 5 6]{2} 4{1} [1 2 3 5 6] 4{5} [1 2 3 5 6]*) | ([1 2 3 5 6]* 4{2} [1 2 3 5 6]{3} [1 2 3 5 6] 4{2} [1 2 3 5 6]{3} [1 2 3 5 6] 4{1} [1 2 3 5 6]{4} [1 2 3 5 6] 4{1} [1 2 3 5 6]{4} [1 2 3 5 6] 4{3} [1 2 3 5 6]*) | ([1 2 3 5 6]* 4{5} [1 2 3 5 6] 4{1} [1 2 3 5 6]{2} 4{2} [1 2 3 5 6] 4{1} [1 2 3 5 6]*) | ([1 2 3 5 6]* 4{3} [1 2 3 5 6]{2} [1 2 3 5 6] 4{1} [1 2 3 5 6]{4} [1 2 3 5 6] 4{1} [1 2 3 5 6]{4} [1 2 3 5 6] 4{2} [1 2 3 5 6]{3} [1 2 3 5 6] 4{2} [1 2 3 5 6]*) | ([1 2 3 5 6]* 4{1} [1 2 3 5 6]{4} [1 2 3 5 6] 4{1} [1 2 3 5 6]{2} 4{2} [1 2 3 5 6] 4{5} [1 2 3 5 6]*) | ([1 2 3 5 6]* 4{2} [1 2 3 5 6] [1 2 3 5 6]{3} 4{2} [1 2 3 5 6] [1 2 3 5 6]{4} 4{1} [1 2 3 5 6] [1 2 3 5 6]{4} 4{1} [1 2 3 5 6] [1 2 3 5 6]{2} 4{3} [1 2 3 5 6]*) | ([1 2 3 5 6]* 4{5} [1 2 3 5 6] 4{2} [1 2 3 5 6]{2} 4{1} [1 2 3 5 6] [1 2 3 5 6]{4} 4{1} [1 2 3 5 6]*) )",
    "( ([1 2 3 4 6]* 5{2} [1 2 3 4 6]{3} [1 2 3 4 6] 5{3} [1 2 3 4 6]{2} [1 2 3 4 6] 5{1} [1 2 3 4 6]{4} [1 2 3 4 6] 5{1} [1 2 3 4 6]*) | ([1 2 3 4 6]* 5{4} [1 2 3 4 6] [1 2 3 4 6]{3} 5{2} [1 2 3 4 6] [1 2 3 4 6]{3} 5{1} [1 2 3 4 6]*) | ([1 2 3 4 6]* 5{1} [1 2 3 4 6] [1 2 3 4 6]{4} 5{1} [1 2 3 4 6] [1 2 3 4 6]{2} 5{3} [1 2 3 4 6] [1 2 3 4 6]{3} 5{2} [1 2 3 4 6]*) | ([1 2 3 4 6]* 5{1} [1 2 3 4 6]{3} [1 2 3 4 6] 5{2} [1 2 3 4 6]{3} [1 2 3 4 6] 5{4} [1 2 3 4 6]*) | ([1 2 3 4 6]* 5{2} [1 2 3 4 6] [1 2 3 4 6]{2} 5{3} [1 2 3 4 6] [1 2 3 4 6]{4} 5{1} [1 2 3 4 6] [1 2 3 4 6]{4} 5{1} [1 2 3 4 6]*) | ([1 2 3 4 6]* 5{4} [1 2 3 4 6]{1} [1 2 3 4 6] 5{2} [1 2 3 4 6]{3} [1 2 3 4 6] [1 2 3 4 6]{1} 5{1} [1 2 3 4 6]*) | ([1 2 3 4 6]* 5{1} [1 2 3 4 6]{4} [1 2 3 4 6] 5{1} [1 2 3 4 6]{4} [1 2 3 4 6] 5{3} [1 2 3 4 6]{2} [1 2 3 4 6] 5{2} [1 2 3 4 6]*) | ([1 2 3 4 6]* 5{1} [1 2 3 4 6]{1} [1 2 3 4 6] [1 2 3 4 6]{3} 5{2} [1 2 3 4 6] [1 2 3 4 6]{1} 5{4} [1 2 3 4 6]*) )",
];
